NAME :
TYPE : CCVRP
COMMENT :
DIMENSION : 421
CAPACITY : 200
EDGE_WEIGHT_TYPE : EUC_2D_DBL
NODE_COORD_TYPE: TWOD_COORD
NODE_COORD_SECTION
1 0.0000 0.0000
2 5.7735 0.0000
3 2.8867 5.0000
4 -2.8868 5.0000
5 -5.7735 0.0000
6 -2.8867 -5.0000
7 2.8868 -5.0000
8 8.6603 5.0000
9 0.0000 10.0000
10 -8.6603 5.0000
11 -8.6603 -5.0000
12 0.0000 -10.0000
13 8.6603 -5.0000
14 5.3405 0.7500
15 3.3198 4.2500
16 6.4952 -1.2500
17 7.2169 -2.5000
18 7.9386 -3.7500
19 6.4952 1.2500
20 7.2169 2.5000
21 7.9386 3.7500
22 2.0207 5.0000
23 -2.0207 5.0000
24 4.3301 5.0000
25 5.7735 5.0000
26 7.2169 5.0000
27 2.1651 6.2500
28 1.4434 7.5000
29 0.7217 8.7500
30 -3.3198 4.2500
31 -5.3405 0.7500
32 -2.1651 6.2500
33 -1.4434 7.5000
34 -0.7217 8.7500
35 -4.3301 5.0000
36 -5.7735 5.0000
37 -7.2169 5.0000
38 -5.3405 -0.7500
39 -3.3198 -4.2500
40 -6.4952 1.2500
41 -7.2169 2.5000
42 -7.9386 3.7500
43 -6.4952 -1.2500
44 -7.2169 -2.5000
45 -7.9386 -3.7500
46 -2.0207 -5.0000
47 2.0207 -5.0000
48 -4.3301 -5.0000
49 -5.7735 -5.0000
50 -7.2169 -5.0000
51 -2.1651 -6.2500
52 -1.4434 -7.5000
53 -0.7217 -8.7500
54 3.3198 -4.2500
55 5.3405 -0.7500
56 2.1651 -6.2500
57 1.4434 -7.5000
58 0.7217 -8.7500
59 4.3301 -5.0000
60 5.7735 -5.0000
61 7.2169 -5.0000
62 7.2169 0.0000
63 3.6084 6.2500
64 -3.6084 6.2500
65 -7.2169 0.0000
66 -3.6084 -6.2500
67 3.6084 -6.2500
68 10.8253 6.2500
69 0.0000 12.5000
70 -10.8253 6.2500
71 -10.8253 -6.2500
72 0.0000 -12.5000
73 10.8253 -6.2500
74 6.6756 0.9375
75 4.1497 5.3125
76 8.1190 -1.5625
77 9.0211 -3.1250
78 9.9232 -4.6875
79 8.1190 1.5625
80 9.0211 3.1250
81 9.9232 4.6875
82 2.5259 6.2500
83 -2.5259 6.2500
84 5.4127 6.2500
85 7.2169 6.2500
86 9.0211 6.2500
87 2.7063 7.8125
88 1.8042 9.3750
89 0.9021 10.9375
90 -4.1497 5.3125
91 -6.6756 0.9375
92 -2.7063 7.8125
93 -1.8042 9.3750
94 -0.9021 10.9375
95 -5.4127 6.2500
96 -7.2169 6.2500
97 -9.0211 6.2500
98 -6.6756 -0.9375
99 -4.1497 -5.3125
100 -8.1190 1.5625
101 -9.0211 3.1250
102 -9.9232 4.6875
103 -8.1190 -1.5625
104 -9.0211 -3.1250
105 -9.9232 -4.6875
106 -2.5259 -6.2500
107 2.5259 -6.2500
108 -5.4127 -6.2500
109 -7.2169 -6.2500
110 -9.0211 -6.2500
111 -2.7063 -7.8125
112 -1.8042 -9.3750
113 -0.9021 -10.9375
114 4.1497 -5.3125
115 6.6756 -0.9375
116 2.7063 -7.8125
117 1.8042 -9.3750
118 0.9021 -10.9375
119 5.4127 -6.2500
120 7.2169 -6.2500
121 9.0211 -6.2500
122 9.0211 0.0000
123 4.5105 7.8125
124 -4.5105 7.8125
125 -9.0211 0.0000
126 -4.5105 -7.8125
127 4.5106 -7.8125
128 13.5316 7.8125
129 0.0000 15.6250
130 -13.5316 7.8125
131 -13.5316 -7.8125
132 0.0000 -15.6250
133 13.5316 -7.8125
134 8.3445 1.1719
135 5.1871 6.6406
136 10.1487 -1.9531
137 11.2764 -3.9062
138 12.4040 -5.8594
139 10.1487 1.9531
140 11.2764 3.9062
141 12.4040 5.8594
142 3.1574 7.8125
143 -3.1574 7.8125
144 6.7658 7.8125
145 9.0211 7.8125
146 11.2764 7.8125
147 3.3829 9.7656
148 2.2553 11.7187
149 1.1276 13.6719
150 -5.1871 6.6406
151 -8.3445 1.1719
152 -3.3829 9.7656
153 -2.2553 11.7187
154 -1.1276 13.6719
155 -6.7658 7.8125
156 -9.0211 7.8125
157 -11.2764 7.8125
158 -8.3445 -1.1719
159 -5.1871 -6.6406
160 -10.1487 1.9531
161 -11.2764 3.9062
162 -12.4040 5.8594
163 -10.1487 -1.9531
164 -11.2764 -3.9063
165 -12.4040 -5.8594
166 -3.1574 -7.8125
167 3.1574 -7.8125
168 -6.7658 -7.8125
169 -9.0211 -7.8125
170 -11.2764 -7.8125
171 -3.3829 -9.7656
172 -2.2553 -11.7187
173 -1.1276 -13.6719
174 5.1871 -6.6406
175 8.3445 -1.1719
176 3.3829 -9.7656
177 2.2553 -11.7187
178 1.1276 -13.6719
179 6.7658 -7.8125
180 9.0211 -7.8125
181 11.2764 -7.8125
182 11.2764 0.0000
183 5.6382 9.7656
184 -5.6382 9.7656
185 -11.2764 0.0000
186 -5.6382 -9.7656
187 5.6382 -9.7656
188 16.9146 9.7656
189 0.0000 19.5312
190 -16.9146 9.7656
191 -16.9146 -9.7656
192 0.0000 -19.5312
193 16.9146 -9.7656
194 10.4306 1.4648
195 6.4839 8.3008
196 12.6859 -2.4414
197 14.0955 -4.8828
198 15.5050 -7.3242
199 12.6859 2.4414
200 14.0955 4.8828
201 15.5050 7.3242
202 3.9467 9.7656
203 -3.9467 9.7656
204 8.4573 9.7656
205 11.2764 9.7656
206 14.0955 9.7656
207 4.2286 12.2070
208 2.8191 14.6484
209 1.4095 17.0898
210 -6.4839 8.3008
211 -10.4306 1.4648
212 -4.2286 12.2070
213 -2.8191 14.6484
214 -1.4095 17.0898
215 -8.4573 9.7656
216 -11.2764 9.7656
217 -14.0955 9.7656
218 -10.4306 -1.4648
219 -6.4839 -8.3008
220 -12.6859 2.4414
221 -14.0955 4.8828
222 -15.5050 7.3242
223 -12.6859 -2.4414
224 -14.0955 -4.8828
225 -15.5050 -7.3242
226 -3.9467 -9.7656
227 3.9467 -9.7656
228 -8.4573 -9.7656
229 -11.2764 -9.7656
230 -14.0955 -9.7656
231 -4.2286 -12.2070
232 -2.8191 -14.6484
233 -1.4095 -17.0898
234 6.4839 -8.3008
235 10.4306 -1.4648
236 4.2286 -12.2070
237 2.8191 -14.6484
238 1.4095 -17.0898
239 8.4573 -9.7656
240 11.2764 -9.7656
241 14.0955 -9.7656
242 14.0955 0.0000
243 7.0477 12.2070
244 -7.0477 12.2070
245 -14.0955 0.0000
246 -7.0477 -12.2070
247 7.0477 -12.2070
248 21.1432 12.2070
249 0.0000 24.4141
250 -21.1432 12.2070
251 -21.1432 -12.2070
252 0.0000 -24.4141
253 21.1432 -12.2070
254 13.0383 1.8311
255 8.1049 10.3760
256 15.8574 -3.0518
257 17.6193 -6.1035
258 19.3813 -9.1553
259 15.8574 3.0518
260 17.6193 6.1035
261 19.3813 9.1553
262 4.9334 12.2070
263 -4.9334 12.2070
264 10.5716 12.2070
265 14.0955 12.2070
266 17.6193 12.2070
267 5.2858 15.2588
268 3.5239 18.3105
269 1.7619 21.3623
270 -8.1049 10.3760
271 -13.0383 1.8311
272 -5.2858 15.2588
273 -3.5239 18.3105
274 -1.7619 21.3623
275 -10.5716 12.2070
276 -14.0955 12.2070
277 -17.6193 12.2070
278 -13.0383 -1.8311
279 -8.1049 -10.3760
280 -15.8574 3.0518
281 -17.6193 6.1035
282 -19.3813 9.1553
283 -15.8574 -3.0518
284 -17.6193 -6.1035
285 -19.3813 -9.1553
286 -4.9334 -12.2070
287 4.9334 -12.2070
288 -10.5716 -12.2070
289 -14.0955 -12.2070
290 -17.6193 -12.2070
291 -5.2858 -15.2588
292 -3.5239 -18.3105
293 -1.7619 -21.3623
294 8.1049 -10.3760
295 13.0383 -1.8311
296 5.2858 -15.2588
297 3.5239 -18.3105
298 1.7619 -21.3623
299 10.5716 -12.2070
300 14.0955 -12.2070
301 17.6193 -12.2070
302 17.6193 0.0000
303 8.8097 15.2588
304 -8.8097 15.2588
305 -17.6193 0.0000
306 -8.8097 -15.2588
307 8.8097 -15.2588
308 26.4290 15.2588
309 0.0000 30.5176
310 -26.4290 15.2588
311 -26.4290 -15.2588
312 0.0000 -30.5176
313 26.4290 -15.2588
314 16.2979 2.2888
315 10.1311 12.9700
316 19.8217 -3.8147
317 22.0242 -7.6294
318 24.2266 -11.4441
319 19.8217 3.8147
320 22.0242 7.6294
321 24.2266 11.4441
322 6.1668 15.2588
323 -6.1668 15.2588
324 13.2145 15.2588
325 17.6193 15.2588
326 22.0242 15.2588
327 6.6072 19.0735
328 4.4048 22.8882
329 2.2024 26.7029
330 -10.1311 12.9700
331 -16.2979 2.2888
332 -6.6072 19.0735
333 -4.4048 22.8882
334 -2.2024 26.7029
335 -13.2145 15.2588
336 -17.6193 15.2588
337 -22.0242 15.2588
338 -16.2979 -2.2888
339 -10.1311 -12.9700
340 -19.8217 3.8147
341 -22.0242 7.6294
342 -24.2266 11.4441
343 -19.8217 -3.8147
344 -22.0242 -7.6294
345 -24.2266 -11.4441
346 -6.1668 -15.2588
347 6.1668 -15.2588
348 -13.2145 -15.2588
349 -17.6193 -15.2588
350 -22.0242 -15.2588
351 -6.6072 -19.0735
352 -4.4048 -22.8882
353 -2.2024 -26.7029
354 10.1311 -12.9700
355 16.2979 -2.2888
356 6.6073 -19.0735
357 4.4048 -22.8882
358 2.2024 -26.7029
359 13.2145 -15.2588
360 17.6193 -15.2588
361 22.0242 -15.2588
362 22.0242 0.0000
363 11.0121 19.0735
364 -11.0121 19.0735
365 -22.0242 0.0000
366 -11.0121 -19.0735
367 11.0121 -19.0735
368 33.0362 19.0735
369 0.0000 38.1470
370 -33.0362 19.0735
371 -33.0362 -19.0735
372 0.0000 -38.1470
373 33.0363 -19.0735
374 20.3723 2.8610
375 12.6639 16.2125
376 24.7772 -4.7684
377 27.5302 -9.5367
378 30.2832 -14.3051
379 24.7772 4.7684
380 27.5302 9.5367
381 30.2832 14.3051
382 7.7085 19.0735
383 -7.7085 19.0735
384 16.5181 19.0735
385 22.0242 19.0735
386 27.5302 19.0735
387 8.2591 23.8419
388 5.5060 28.6102
389 2.7530 33.3786
390 -12.6639 16.2125
391 -20.3723 2.8610
392 -8.2591 23.8419
393 -5.5060 28.6102
394 -2.7530 33.3786
395 -16.5181 19.0735
396 -22.0242 19.0735
397 -27.5302 19.0735
398 -20.3723 -2.8610
399 -12.6639 -16.2125
400 -24.7772 4.7684
401 -27.5302 9.5367
402 -30.2832 14.3051
403 -24.7772 -4.7684
404 -27.5302 -9.5367
405 -30.2832 -14.3051
406 -7.7085 -19.0735
407 7.7085 -19.0735
408 -16.5181 -19.0735
409 -22.0242 -19.0735
410 -27.5302 -19.0735
411 -8.2591 -23.8419
412 -5.5060 -28.6102
413 -2.7530 -33.3786
414 12.6639 -16.2125
415 20.3723 -2.8610
416 8.2591 -23.8418
417 5.5060 -28.6102
418 2.7530 -33.3786
419 16.5181 -19.0735
420 22.0242 -19.0735
421 27.5302 -19.0735
DEMAND_SECTION
1 0
2 40
3 40
4 40
5 40
6 40
7 40
8 40
9 40
10 40
11 40
12 40
13 40
14 10
15 10
16 10
17 20
18 10
19 10
20 20
21 10
22 10
23 10
24 10
25 20
26 10
27 10
28 20
29 10
30 10
31 10
32 10
33 20
34 10
35 10
36 20
37 10
38 10
39 10
40 10
41 20
42 10
43 10
44 20
45 10
46 10
47 10
48 10
49 20
50 10
51 10
52 20
53 10
54 10
55 10
56 10
57 20
58 10
59 10
60 20
61 10
62 40
63 40
64 40
65 40
66 40
67 40
68 40
69 40
70 40
71 40
72 40
73 40
74 10
75 10
76 10
77 20
78 10
79 10
80 20
81 10
82 10
83 10
84 10
85 20
86 10
87 10
88 20
89 10
90 10
91 10
92 10
93 20
94 10
95 10
96 20
97 10
98 10
99 10
100 10
101 20
102 10
103 10
104 20
105 10
106 10
107 10
108 10
109 20
110 10
111 10
112 20
113 10
114 10
115 10
116 10
117 20
118 10
119 10
120 20
121 10
122 40
123 40
124 40
125 40
126 40
127 40
128 40
129 40
130 40
131 40
132 40
133 40
134 10
135 10
136 10
137 20
138 10
139 10
140 20
141 10
142 10
143 10
144 10
145 20
146 10
147 10
148 20
149 10
150 10
151 10
152 10
153 20
154 10
155 10
156 20
157 10
158 10
159 10
160 10
161 20
162 10
163 10
164 20
165 10
166 10
167 10
168 10
169 20
170 10
171 10
172 20
173 10
174 10
175 10
176 10
177 20
178 10
179 10
180 20
181 10
182 40
183 40
184 40
185 40
186 40
187 40
188 40
189 40
190 40
191 40
192 40
193 40
194 10
195 10
196 10
197 20
198 10
199 10
200 20
201 10
202 10
203 10
204 10
205 20
206 10
207 10
208 20
209 10
210 10
211 10
212 10
213 20
214 10
215 10
216 20
217 10
218 10
219 10
220 10
221 20
222 10
223 10
224 20
225 10
226 10
227 10
228 10
229 20
230 10
231 10
232 20
233 10
234 10
235 10
236 10
237 20
238 10
239 10
240 20
241 10
242 40
243 40
244 40
245 40
246 40
247 40
248 40
249 40
250 40
251 40
252 40
253 40
254 10
255 10
256 10
257 20
258 10
259 10
260 20
261 10
262 10
263 10
264 10
265 20
266 10
267 10
268 20
269 10
270 10
271 10
272 10
273 20
274 10
275 10
276 20
277 10
278 10
279 10
280 10
281 20
282 10
283 10
284 20
285 10
286 10
287 10
288 10
289 20
290 10
291 10
292 20
293 10
294 10
295 10
296 10
297 20
298 10
299 10
300 20
301 10
302 40
303 40
304 40
305 40
306 40
307 40
308 40
309 40
310 40
311 40
312 40
313 40
314 10
315 10
316 10
317 20
318 10
319 10
320 20
321 10
322 10
323 10
324 10
325 20
326 10
327 10
328 20
329 10
330 10
331 10
332 10
333 20
334 10
335 10
336 20
337 10
338 10
339 10
340 10
341 20
342 10
343 10
344 20
345 10
346 10
347 10
348 10
349 20
350 10
351 10
352 20
353 10
354 10
355 10
356 10
357 20
358 10
359 10
360 20
361 10
362 40
363 40
364 40
365 40
366 40
367 40
368 40
369 40
370 40
371 40
372 40
373 40
374 10
375 10
376 10
377 20
378 10
379 10
380 20
381 10
382 10
383 10
384 10
385 20
386 10
387 10
388 20
389 10
390 10
391 10
392 10
393 20
394 10
395 10
396 20
397 10
398 10
399 10
400 10
401 20
402 10
403 10
404 20
405 10
406 10
407 10
408 10
409 20
410 10
411 10
412 20
413 10
414 10
415 10
416 10
417 20
418 10
419 10
420 20
421 10
CLUSTER_SECTION
1 173
2 6
3 11
4 16
5 21
6 26
7 31
8 3
9 13
10 18
11 23
12 28
13 8
14 6
15 11
16 7
17 7
18 8
19 5
20 4
21 4
22 12
23 16
24 9
25 9
26 4
27 12
28 12
29 13
30 17
31 21
32 15
33 14
34 14
35 17
36 17
37 18
38 22
39 26
40 20
41 19
42 19
43 22
44 22
45 23
46 27
47 31
48 25
49 24
50 24
51 27
52 27
53 28
54 32
55 7
56 30
57 29
58 29
59 32
60 32
61 33
62 34
63 10
64 36
65 38
66 40
67 42
68 2
69 50
70 55
71 60
72 65
73 44
74 5
75 9
76 34
77 33
78 44
79 45
80 45
81 3
82 12
83 15
84 9
85 47
86 47
87 49
88 49
89 50
90 17
91 20
92 36
93 14
94 51
95 53
96 53
97 55
98 22
99 25
100 38
101 19
102 56
103 58
104 58
105 60
106 27
107 30
108 40
109 24
110 61
111 63
112 63
113 65
114 32
115 7
116 42
117 29
118 66
119 68
120 33
121 68
122 35
123 69
124 37
125 39
126 41
127 43
128 1
129 91
130 92
131 93
132 94
133 95
134 45
135 10
136 71
137 71
138 73
139 45
140 74
141 2
142 49
143 37
144 47
145 76
146 76
147 69
148 70
149 78
150 53
151 39
152 51
153 51
154 51
155 53
156 54
157 79
158 58
159 41
160 56
161 56
162 56
163 58
164 59
165 80
166 63
167 43
168 61
169 61
170 61
171 63
172 64
173 81
174 68
175 35
176 66
177 66
178 66
179 68
180 82
181 82
182 46
183 48
184 52
185 57
186 62
187 67
188 96
189 97
190 98
191 99
192 100
193 101
194 46
195 48
196 71
197 73
198 95
199 74
200 74
201 1
202 70
203 52
204 76
205 84
206 84
207 70
208 78
209 91
210 54
211 57
212 102
213 86
214 97
215 54
216 79
217 92
218 59
219 62
220 103
221 87
222 98
223 59
224 80
225 93
226 64
227 67
228 104
229 88
230 99
231 64
232 81
233 94
234 68
235 71
236 105
237 89
238 100
239 82
240 90
241 101
242 72
243 77
244 106
245 108
246 110
247 83
248 137
249 138
250 139
251 140
252 141
253 113
254 75
255 77
256 112
257 112
258 113
259 75
260 114
261 96
262 70
263 102
264 84
265 116
266 116
267 118
268 118
269 119
270 54
271 103
272 106
273 120
274 120
275 122
276 122
277 123
278 59
279 104
280 108
281 124
282 124
283 126
284 126
285 127
286 64
287 105
288 110
289 128
290 128
291 130
292 130
293 131
294 83
295 72
296 105
297 132
298 132
299 134
300 134
301 136
302 115
303 85
304 107
305 109
306 111
307 133
308 161
309 163
310 165
311 167
312 169
313 171
314 75
315 85
316 142
317 142
318 143
319 114
320 114
321 137
322 118
323 107
324 116
325 144
326 144
327 118
328 119
329 138
330 122
331 109
332 120
333 145
334 145
335 122
336 123
337 139
338 126
339 111
340 124
341 146
342 146
343 126
344 127
345 140
346 130
347 105
348 128
349 147
350 147
351 130
352 131
353 141
354 134
355 112
356 132
357 148
358 148
359 134
360 136
361 136
362 149
363 117
364 121
365 125
366 129
367 135
368 162
369 164
370 166
371 168
372 170
373 172
374 115
375 117
376 149
377 143
378 171
379 150
380 150
381 161
382 119
383 121
384 144
385 151
386 162
387 119
388 152
389 163
390 123
391 125
392 145
393 153
394 164
395 123
396 154
397 165
398 127
399 129
400 146
401 155
402 166
403 127
404 156
405 167
406 131
407 133
408 147
409 157
410 168
411 131
412 158
413 169
414 135
415 142
416 148
417 159
418 170
419 160
420 160
421 172
DEPOT_SECTION
1
-1
EOF
